Route #1: 11 23 38
Route #2: 35 27 31 43 33 15 20
Route #3: 13 4 26 24 39 14 36 2
Route #4: 25 28 3 12 1 40
Route #5: 19 8 22 30 42 10 9 32
Route #6: 6 21 34 37 41 29 18
Route #7: 5 17 7 16
Cost 937.7351985254666